10 10 3

0 356 114 271 460 366 476 476 321 477 
139 0 367 318 182 333 70 68 129 341 
99 279 0 92 252 406 478 481 248 65 
470 155 254 0 412 461 318 182 420 390 
157 152 417 341 0 241 490 365 129 323 
142 147 402 433 403 0 387 475 155 293 
209 342 247 431 311 352 0 184 222 68 
208 110 439 97 425 297 221 0 472 244 
210 336 323 483 428 176 141 117 0 78 
478 298 390 477 213 232 223 143 249 0 

376.2 0 3
376.2 1 8
376.2 2 3
376.2 3 0
376.2 4 3
376.2 5 6
376.2 6 8
376.2 7 8
376.2 8 5
376.2 9 5

